VRPTWMS/instances/mip/freight/Comparison/N4-C_DV10-C_SV50_F10_7_No_1.log

Gurobi 6.0.4 (win64) logging started 06/18/15 16:03:13

Read LP format model from file C:\MT\repository\VRPTWMS\instances\mip\freight\N4-C_DV10-C_SV50_F10_7_No_1.lp
Reading time = 0.00 seconds
(null): 129 rows, 72 columns, 447 nonzeros
Optimize a model with 129 rows, 72 columns and 447 nonzeros
Model has 64 quadratic constraints
Coefficient statistics:
  Matrix range    [1e+00, 1e+06]
  Objective range [8e+04, 1e+07]
  Bounds range    [1e+00, 1e+06]
  RHS range       [1e+00, 1e+06]
Presolve removed 63 rows and 28 columns
Presolve time: 0.00s
Presolved: 130 rows, 76 columns, 605 nonzeros
Variable types: 32 continuous, 44 integer (35 binary)
Found heuristic solution: objective 3.169160e+07

Root relaxation: objective 2.169120e+07, 7 iterations, 0.00 seconds

    Nodes    |    Current Node    |     Objective Bounds      |     Work
 Expl Unexpl |  Obj  Depth IntInf | Incumbent    BestBd   Gap | It/Node Time

*    0     0               0    2.169120e+07 2.1691e+07  0.00%     -    0s

Explored 0 nodes (7 simplex iterations) in 0.00 seconds
Thread count was 2 (of 4 available processors)

Optimal solution found (tolerance 1.00e-04)
Best objective 2.169120000000e+07, best bound 2.169120000000e+07, gap 0.0%
k_c1	50000.0
k_c2	80000.0
k_c3	100000.0
k_c4	80000.0
k_dN	-0.0
o_1	-0.0
o_2	-0.0
o_3	-0.0
o_4	-0.0
p_1	-0.0
p_2	-0.0
p_3	-0.0
p_4	-0.0
phi_c1	26365.0
phi_c2	20833.0
phi_c3	79347.99999999997
phi_c4	58096.0
phi_d0	100000.0
phi_dN	-0.0
tauD_c1	718575.0
tauD_c2	500000.0
tauD_c3	300000.0
tauD_c4	500000.0
tauD_d0	-0.0
tauD_dN	1000000.0
tauS_c1	-0.0
tauS_c2	-0.0
tauS_c3	-0.0
tauS_c4	-0.0
tauS_d0	-0.0
tauS_dN	242725.0
x_c1_dN	1.0
x_c2_dN	1.0
x_c3_c2	1.0
x_c4_c1	1.0
x_d0_c3	1.0
x_d0_c4	1.0
